coords = array2d(1..29, 1..2, [462, 89, 166, 951, 961, 398, 293, 176, 618, 380,
    770, 490, 848, 441, 518, 647, 318, 57, 828, 721, 757, 256, 763,
    320, 485, 652, 808, 64, 831, 440, 774, 618, 298, 315, 499, 768,
    718, 602, 731, 598, 998, 250, 407, 118, 303, 757, 327, 275, 647,
    314, 796, 954, 980, 184, 6, 532, 180, 454]);

n = 29;

